c
p cnf 22 69
12 18 0
-4 19 0
1 18 0
18 14 0
-21 18 0
15 19 0
-15 17 0
7 2 0
9 -22 0
7 -15 0
-14 15 0
-2 -9 0
-13 5 0
18 -19 0
10 -12 0
20 -14 0
-9 -16 0
9 13 0
9 -20 0
3 10 0
-1 -3 0
9 22 0
-12 -10 0
21 -13 0
-14 -11 0
-21 5 0
9 -19 0
1 -7 0
3 12 0
-15 -1 0
13 -5 0
-14 -7 0
-17 19 0
-15 2 0
-4 -11 0
-14 5 0
-1 -13 0
15 -19 0
-21 2 0
6 19 0
2 13 0
-2 16 0
11 6 0
-10 -2 0
-3 2 0
10 -20 0
-2 -19 0
15 -1 0
-2 -16 0
-16 7 0
4 7 0
-8 -7 0
22 7 0
-5 -17 0
3 11 0
-21 -2 0
5 -20 0
-20 -18 0
-12 -9 0
-16 -22 0
4 8 0
-4 22 0
9 -15 0
17 -20 0
-4 16 0
-17 -18 0
-21 -6 0
2 6 0
-11 -22 0
